\ Deschutes NF model file for climate scenario Ensemble_rcp45
MAXIMIZE
OBJECTIVE: FireHazardReduction + OwlHabitat - MaxSediment

Subject To:
FireObjective:  -1.0 x_0_0 + 4.0 x_0_1 + 7.0 x_0_2 + 10.0 x_0_3
 -1.0 x_1_0 + 4.0 x_1_1 + 7.0 x_1_2 + 10.0 x_1_3
 -1.0 x_2_0 + 4.0 x_2_1 + 7.0 x_2_2 + 10.0 x_2_3
 -1.0 x_3_0 + 4.0 x_3_1 + 7.0 x_3_2 + 10.0 x_3_3
 -1.0 x_4_0 + 4.0 x_4_1 + 7.0 x_4_2 + 10.0 x_4_3
 -1.0 x_5_0 + 4.0 x_5_1 + 7.0 x_5_2 + 10.0 x_5_3
 -1.0 x_6_0 + 4.0 x_6_1 + 7.0 x_6_2 + 10.0 x_6_3
 -1.0 x_7_0 + 4.0 x_7_1 + 7.0 x_7_2 + 10.0 x_7_3
 -1.0 x_8_0 + 4.0 x_8_1 + 7.0 x_8_2 + 10.0 x_8_3
 -1.0 x_9_0 + 4.0 x_9_1 + 7.0 x_9_2 + 10.0 x_9_3
 -1.0 x_10_0 + 4.0 x_10_1 + 7.0 x_10_2 + 10.0 x_10_3
 -1.0 x_11_0 + 4.0 x_11_1 + 7.0 x_11_2 + 10.0 x_11_3
 -1.0 x_12_0 + 4.0 x_12_1 + 7.0 x_12_2 + 10.0 x_12_3
 -1.0 x_13_0 + 4.0 x_13_1 + 7.0 x_13_2 + 10.0 x_13_3
 -1.0 x_14_0 + 4.0 x_14_1 + 7.0 x_14_2 + 10.0 x_14_3
 -1.0 x_15_0 + 4.0 x_15_1 + 7.0 x_15_2 + 10.0 x_15_3
 -1.0 x_16_0 + 4.0 x_16_1 + 7.0 x_16_2 + 10.0 x_16_3
 -1.0 x_17_0 + 4.0 x_17_1 + 7.0 x_17_2 + 10.0 x_17_3
 -1.0 x_18_0 + 4.0 x_18_1 + 7.0 x_18_2 + 10.0 x_18_3
 -1.0 x_19_0 + 4.0 x_19_1 + 7.0 x_19_2 + 10.0 x_19_3
 -1.0 x_20_0 + 4.0 x_20_1 + 7.0 x_20_2 + 10.0 x_20_3
 -1.0 x_21_0 + 4.0 x_21_1 + 7.0 x_21_2 + 10.0 x_21_3
 -1.0 x_22_0 + 4.0 x_22_1 + 7.0 x_22_2 + 10.0 x_22_3
 -1.0 x_23_0 + 4.0 x_23_1 + 7.0 x_23_2 + 10.0 x_23_3
 -1.0 x_24_0 + 4.0 x_24_1 + 7.0 x_24_2 + 10.0 x_24_3
 -1.0 x_25_0 + 4.0 x_25_1 + 7.0 x_25_2 + 10.0 x_25_3
 -1.0 x_26_0 + 4.0 x_26_1 + 7.0 x_26_2 + 10.0 x_26_3
 -1.0 x_27_0 + 4.0 x_27_1 + 7.0 x_27_2 + 10.0 x_27_3
 -1.0 x_28_0 + 4.0 x_28_1 + 7.0 x_28_2 + 10.0 x_28_3
 -1.0 x_29_0 + 4.0 x_29_1 + 7.0 x_29_2 + 10.0 x_29_3
 -1.0 x_30_0 + 4.0 x_30_1 + 7.0 x_30_2 + 10.0 x_30_3
 -1.0 x_31_0 + 4.0 x_31_1 + 7.0 x_31_2 + 10.0 x_31_3
 -1.0 x_32_0 + 4.0 x_32_1 + 7.0 x_32_2 + 10.0 x_32_3
 -1.0 x_33_0 + 4.0 x_33_1 + 7.0 x_33_2 + 10.0 x_33_3
 -1.0 x_34_0 + 4.0 x_34_1 + 7.0 x_34_2 + 10.0 x_34_3
 -1.0 x_35_0 + 4.0 x_35_1 + 7.0 x_35_2 + 10.0 x_35_3
 -1.0 x_36_0 + 4.0 x_36_1 + 7.0 x_36_2 + 10.0 x_36_3
 -1.0 x_37_0 + 4.0 x_37_1 + 7.0 x_37_2 + 10.0 x_37_3
 -1.0 x_38_0 + 4.0 x_38_1 + 7.0 x_38_2 + 10.0 x_38_3
 -1.0 x_39_0 + 4.0 x_39_1 + 7.0 x_39_2 + 10.0 x_39_3
 -1.0 x_40_0 + 4.0 x_40_1 + 7.0 x_40_2 + 10.0 x_40_3
 -1.0 x_41_0 + 4.0 x_41_1 + 7.0 x_41_2 + 10.0 x_41_3
 -1.0 x_42_0 + 4.0 x_42_1 + 7.0 x_42_2 + 10.0 x_42_3
 -1.0 x_43_0 + 4.0 x_43_1 + 7.0 x_43_2 + 10.0 x_43_3
 -1.0 x_44_0 + 4.0 x_44_1 + 7.0 x_44_2 + 10.0 x_44_3
 -1.0 x_45_0 + 4.0 x_45_1 + 7.0 x_45_2 + 10.0 x_45_3
 -1.0 x_46_0 + 4.0 x_46_1 + 7.0 x_46_2 + 10.0 x_46_3
 -1.0 x_47_0 + 4.0 x_47_1 + 7.0 x_47_2 + 10.0 x_47_3
 -1.0 x_48_0 + 4.0 x_48_1 + 7.0 x_48_2 + 10.0 x_48_3
 -1.0 x_49_0 + 4.0 x_49_1 + 7.0 x_49_2 + 10.0 x_49_3
 -1.0 x_50_0 + 4.0 x_50_1 + 7.0 x_50_2 + 10.0 x_50_3
 -1.0 x_51_0 + 4.0 x_51_1 + 7.0 x_51_2 + 10.0 x_51_3
 -1.0 x_52_0 + 4.0 x_52_1 + 7.0 x_52_2 + 10.0 x_52_3
 -1.0 x_53_0 + 4.0 x_53_1 + 7.0 x_53_2 + 10.0 x_53_3
 -1.0 x_54_0 + 4.0 x_54_1 + 7.0 x_54_2 + 10.0 x_54_3
 -1.0 x_55_0 + 4.0 x_55_1 + 7.0 x_55_2 + 10.0 x_55_3
 -1.0 x_56_0 + 4.0 x_56_1 + 7.0 x_56_2 + 10.0 x_56_3
 -1.0 x_57_0 + 4.0 x_57_1 + 7.0 x_57_2 + 10.0 x_57_3
 -1.0 x_58_0 + 4.0 x_58_1 + 7.0 x_58_2 + 10.0 x_58_3
 -1.0 x_59_0 + 4.0 x_59_1 + 7.0 x_59_2 + 10.0 x_59_3
 -1.0 x_60_0 + 4.0 x_60_1 + 7.0 x_60_2 + 10.0 x_60_3
 -1.0 x_61_0 + 4.0 x_61_1 + 7.0 x_61_2 + 10.0 x_61_3
 -1.0 x_62_0 + 4.0 x_62_1 + 7.0 x_62_2 + 10.0 x_62_3
 -1.0 x_63_0 + 4.0 x_63_1 + 7.0 x_63_2 + 10.0 x_63_3
 -1.0 x_64_0 + 4.0 x_64_1 + 7.0 x_64_2 + 10.0 x_64_3
 -1.0 x_65_0 + 4.0 x_65_1 + 7.0 x_65_2 + 10.0 x_65_3
 -1.0 x_66_0 + 4.0 x_66_1 + 7.0 x_66_2 + 10.0 x_66_3
 -1.0 x_67_0 + 4.0 x_67_1 + 7.0 x_67_2 + 10.0 x_67_3
 -1.0 x_68_0 + 4.0 x_68_1 + 7.0 x_68_2 + 10.0 x_68_3
 -1.0 x_69_0 + 4.0 x_69_1 + 7.0 x_69_2 + 10.0 x_69_3
 -1.0 x_70_0 + 4.0 x_70_1 + 7.0 x_70_2 + 10.0 x_70_3
 -1.0 x_71_0 + 4.0 x_71_1 + 7.0 x_71_2 + 10.0 x_71_3
 -1.0 x_72_0 + 4.0 x_72_1 + 7.0 x_72_2 + 10.0 x_72_3
 -1.0 x_73_0 + 4.0 x_73_1 + 7.0 x_73_2 + 10.0 x_73_3
 -1.0 x_74_0 + 4.0 x_74_1 + 7.0 x_74_2 + 10.0 x_74_3
 -1.0 x_75_0 + 4.0 x_75_1 + 7.0 x_75_2 + 10.0 x_75_3
 -1.0 x_76_0 + 4.0 x_76_1 + 7.0 x_76_2 + 10.0 x_76_3
 -1.0 x_77_0 + 4.0 x_77_1 + 7.0 x_77_2 + 10.0 x_77_3
 -1.0 x_78_0 + 4.0 x_78_1 + 7.0 x_78_2 + 10.0 x_78_3
 -1.0 x_79_0 + 4.0 x_79_1 + 7.0 x_79_2 + 10.0 x_79_3
 -1.0 x_80_0 + 4.0 x_80_1 + 7.0 x_80_2 + 10.0 x_80_3
 -1.0 x_81_0 + 4.0 x_81_1 + 7.0 x_81_2 + 10.0 x_81_3
 -1.0 x_82_0 + 4.0 x_82_1 + 7.0 x_82_2 + 10.0 x_82_3
 -1.0 x_83_0 + 4.0 x_83_1 + 7.0 x_83_2 + 10.0 x_83_3
 -1.0 x_84_0 + 4.0 x_84_1 + 7.0 x_84_2 + 10.0 x_84_3
 -1.0 x_85_0 + 4.0 x_85_1 + 7.0 x_85_2 + 10.0 x_85_3
 -1.0 x_86_0 + 4.0 x_86_1 + 7.0 x_86_2 + 10.0 x_86_3
 -1.0 x_87_0 + 4.0 x_87_1 + 7.0 x_87_2 + 10.0 x_87_3
 -1.0 x_88_0 + 4.0 x_88_1 + 7.0 x_88_2 + 10.0 x_88_3
 -1.0 x_89_0 + 4.0 x_89_1 + 7.0 x_89_2 + 10.0 x_89_3
 -1.0 x_90_0 + 4.0 x_90_1 + 7.0 x_90_2 + 10.0 x_90_3
 -1.0 x_91_0 + 4.0 x_91_1 + 7.0 x_91_2 + 10.0 x_91_3
 -1.0 x_92_0 + 4.0 x_92_1 + 7.0 x_92_2 + 10.0 x_92_3
 -1.0 x_93_0 + 4.0 x_93_1 + 7.0 x_93_2 + 10.0 x_93_3
 -1.0 x_94_0 + 4.0 x_94_1 + 7.0 x_94_2 + 10.0 x_94_3
 -1.0 x_95_0 + 4.0 x_95_1 + 7.0 x_95_2 + 10.0 x_95_3
 -1.0 x_96_0 + 4.0 x_96_1 + 7.0 x_96_2 + 10.0 x_96_3
 -1.0 x_97_0 + 4.0 x_97_1 + 7.0 x_97_2 + 10.0 x_97_3
 -1.0 x_98_0 + 4.0 x_98_1 + 7.0 x_98_2 + 10.0 x_98_3
 -1.0 x_99_0 + 4.0 x_99_1 + 7.0 x_99_2 + 10.0 x_99_3
 -1.0 x_100_0 + 4.0 x_100_1 + 7.0 x_100_2 + 10.0 x_100_3
 -1.0 x_101_0 + 4.0 x_101_1 + 7.0 x_101_2 + 10.0 x_101_3
 -1.0 x_102_0 + 4.0 x_102_1 + 7.0 x_102_2 + 10.0 x_102_3
 -1.0 x_103_0 + 4.0 x_103_1 + 7.0 x_103_2 + 10.0 x_103_3
 -1.0 x_104_0 + 4.0 x_104_1 + 7.0 x_104_2 + 10.0 x_104_3
 -1.0 x_105_0 + 4.0 x_105_1 + 7.0 x_105_2 + 10.0 x_105_3
 -1.0 x_106_0 + 4.0 x_106_1 + 7.0 x_106_2 + 10.0 x_106_3
 -1.0 x_107_0 + 4.0 x_107_1 + 7.0 x_107_2 + 10.0 x_107_3
 -1.0 x_108_0 + 4.0 x_108_1 + 7.0 x_108_2 + 10.0 x_108_3
 -1.0 x_109_0 + 4.0 x_109_1 + 7.0 x_109_2 + 10.0 x_109_3
 -1.0 x_110_0 + 4.0 x_110_1 + 7.0 x_110_2 + 10.0 x_110_3
 -1.0 x_111_0 + 4.0 x_111_1 + 7.0 x_111_2 + 10.0 x_111_3
 -1.0 x_112_0 + 4.0 x_112_1 + 7.0 x_112_2 + 10.0 x_112_3
 -1.0 x_113_0 + 4.0 x_113_1 + 7.0 x_113_2 + 10.0 x_113_3
 -1.0 x_114_0 + 4.0 x_114_1 + 7.0 x_114_2 + 10.0 x_114_3
 -1.0 x_115_0 + 4.0 x_115_1 + 7.0 x_115_2 + 10.0 x_115_3
 -1.0 x_116_0 + 4.0 x_116_1 + 7.0 x_116_2 + 10.0 x_116_3
 -1.0 x_117_0 + 4.0 x_117_1 + 7.0 x_117_2 + 10.0 x_117_3
 -1.0 x_118_0 + 4.0 x_118_1 + 7.0 x_118_2 + 10.0 x_118_3
 -1.0 x_119_0 + 4.0 x_119_1 + 7.0 x_119_2 + 10.0 x_119_3
 -1.0 x_120_0 + 4.0 x_120_1 + 7.0 x_120_2 + 10.0 x_120_3
 -1.0 x_121_0 + 4.0 x_121_1 + 7.0 x_121_2 + 10.0 x_121_3
 -1.0 x_122_0 + 4.0 x_122_1 + 7.0 x_122_2 + 10.0 x_122_3
 -1.0 x_123_0 + 4.0 x_123_1 + 7.0 x_123_2 + 10.0 x_123_3
 -1.0 x_124_0 + 4.0 x_124_1 + 7.0 x_124_2 + 10.0 x_124_3
 -1.0 x_125_0 + 4.0 x_125_1 + 7.0 x_125_2 + 10.0 x_125_3
 -1.0 x_126_0 + 4.0 x_126_1 + 7.0 x_126_2 + 10.0 x_126_3
 -1.0 x_127_0 + 4.0 x_127_1 + 7.0 x_127_2 + 10.0 x_127_3
 -1.0 x_128_0 + 4.0 x_128_1 + 7.0 x_128_2 + 10.0 x_128_3
 -1.0 x_129_0 + 4.0 x_129_1 + 7.0 x_129_2 + 10.0 x_129_3
 -1.0 x_130_0 + 4.0 x_130_1 + 7.0 x_130_2 + 10.0 x_130_3
 -1.0 x_131_0 + 4.0 x_131_1 + 7.0 x_131_2 + 10.0 x_131_3
 -1.0 x_132_0 + 4.0 x_132_1 + 7.0 x_132_2 + 10.0 x_132_3
 -1.0 x_133_0 + 4.0 x_133_1 + 7.0 x_133_2 + 10.0 x_133_3
 -1.0 x_134_0 + 4.0 x_134_1 + 7.0 x_134_2 + 10.0 x_134_3
 -1.0 x_135_0 + 4.0 x_135_1 + 7.0 x_135_2 + 10.0 x_135_3
 -1.0 x_136_0 + 4.0 x_136_1 + 7.0 x_136_2 + 10.0 x_136_3
 -1.0 x_137_0 + 4.0 x_137_1 + 7.0 x_137_2 + 10.0 x_137_3
 -1.0 x_138_0 + 4.0 x_138_1 + 7.0 x_138_2 + 10.0 x_138_3
 -1.0 x_139_0 + 4.0 x_139_1 + 7.0 x_139_2 + 10.0 x_139_3
 -1.0 x_140_0 + 4.0 x_140_1 + 7.0 x_140_2 + 10.0 x_140_3
 -1.0 x_141_0 + 4.0 x_141_1 + 7.0 x_141_2 + 10.0 x_141_3
 -1.0 x_142_0 + 4.0 x_142_1 + 7.0 x_142_2 + 10.0 x_142_3
 -1.0 x_143_0 + 4.0 x_143_1 + 7.0 x_143_2 + 10.0 x_143_3
 -1.0 x_144_0 + 4.0 x_144_1 + 7.0 x_144_2 + 10.0 x_144_3
 -1.0 x_145_0 + 4.0 x_145_1 + 7.0 x_145_2 + 10.0 x_145_3
 -1.0 x_146_0 + 4.0 x_146_1 + 7.0 x_146_2 + 10.0 x_146_3
 -1.0 x_147_0 + 4.0 x_147_1 + 7.0 x_147_2 + 10.0 x_147_3
 -1.0 x_148_0 + 4.0 x_148_1 + 7.0 x_148_2 + 10.0 x_148_3
 -1.0 x_149_0 + 4.0 x_149_1 + 7.0 x_149_2 + 10.0 x_149_3
 -1.0 x_150_0 + 4.0 x_150_1 + 7.0 x_150_2 + 10.0 x_150_3
 -1.0 x_151_0 + 4.0 x_151_1 + 7.0 x_151_2 + 10.0 x_151_3
 -1.0 x_152_0 + 4.0 x_152_1 + 7.0 x_152_2 + 10.0 x_152_3
 -1.0 x_153_0 + 4.0 x_153_1 + 7.0 x_153_2 + 10.0 x_153_3
 -1.0 x_154_0 + 4.0 x_154_1 + 7.0 x_154_2 + 10.0 x_154_3
 -1.0 x_155_0 + 4.0 x_155_1 + 7.0 x_155_2 + 10.0 x_155_3
 -1.0 x_156_0 + 4.0 x_156_1 + 7.0 x_156_2 + 10.0 x_156_3
 -1.0 x_157_0 + 4.0 x_157_1 + 7.0 x_157_2 + 10.0 x_157_3
 -1.0 x_158_0 + 4.0 x_158_1 + 7.0 x_158_2 + 10.0 x_158_3
 -1.0 x_159_0 + 4.0 x_159_1 + 7.0 x_159_2 + 10.0 x_159_3
 -1.0 x_160_0 + 4.0 x_160_1 + 7.0 x_160_2 + 10.0 x_160_3
 -1.0 x_161_0 + 4.0 x_161_1 + 7.0 x_161_2 + 10.0 x_161_3
 -1.0 x_162_0 + 4.0 x_162_1 + 7.0 x_162_2 + 10.0 x_162_3
 -1.0 x_163_0 + 4.0 x_163_1 + 7.0 x_163_2 + 10.0 x_163_3
 -1.0 x_164_0 + 4.0 x_164_1 + 7.0 x_164_2 + 10.0 x_164_3
 -1.0 x_165_0 + 4.0 x_165_1 + 7.0 x_165_2 + 10.0 x_165_3
 -1.0 x_166_0 + 4.0 x_166_1 + 7.0 x_166_2 + 10.0 x_166_3
 -1.0 x_167_0 + 4.0 x_167_1 + 7.0 x_167_2 + 10.0 x_167_3
 -1.0 x_168_0 + 4.0 x_168_1 + 7.0 x_168_2 + 10.0 x_168_3
 -1.0 x_169_0 + 4.0 x_169_1 + 7.0 x_169_2 + 10.0 x_169_3
 -1.0 x_170_0 + 4.0 x_170_1 + 7.0 x_170_2 + 10.0 x_170_3
 -1.0 x_171_0 + 4.0 x_171_1 + 7.0 x_171_2 + 10.0 x_171_3
 -1.0 x_172_0 + 4.0 x_172_1 + 7.0 x_172_2 + 10.0 x_172_3
 -1.0 x_173_0 + 4.0 x_173_1 + 7.0 x_173_2 + 10.0 x_173_3
 -1.0 x_174_0 + 4.0 x_174_1 + 7.0 x_174_2 + 10.0 x_174_3
 -1.0 x_175_0 + 4.0 x_175_1 + 7.0 x_175_2 + 10.0 x_175_3
 -1.0 x_176_0 + 4.0 x_176_1 + 7.0 x_176_2 + 10.0 x_176_3
 -1.0 x_177_0 + 4.0 x_177_1 + 7.0 x_177_2 + 10.0 x_177_3
 -1.0 x_178_0 + 4.0 x_178_1 + 7.0 x_178_2 + 10.0 x_178_3
 -1.0 x_179_0 + 4.0 x_179_1 + 7.0 x_179_2 + 10.0 x_179_3
 -1.0 x_180_0 + 4.0 x_180_1 + 7.0 x_180_2 + 10.0 x_180_3
 -1.0 x_181_0 + 4.0 x_181_1 + 7.0 x_181_2 + 10.0 x_181_3
 -1.0 x_182_0 + 4.0 x_182_1 + 7.0 x_182_2 + 10.0 x_182_3
 -1.0 x_183_0 + 4.0 x_183_1 + 7.0 x_183_2 + 10.0 x_183_3
 -1.0 x_184_0 + 4.0 x_184_1 + 7.0 x_184_2 + 10.0 x_184_3
 -1.0 x_185_0 + 4.0 x_185_1 + 7.0 x_185_2 + 10.0 x_185_3
 -1.0 x_186_0 + 4.0 x_186_1 + 7.0 x_186_2 + 10.0 x_186_3
 -1.0 x_187_0 + 4.0 x_187_1 + 7.0 x_187_2 + 10.0 x_187_3
 -1.0 x_188_0 + 4.0 x_188_1 + 7.0 x_188_2 + 10.0 x_188_3
 -1.0 x_189_0 + 4.0 x_189_1 + 7.0 x_189_2 + 10.0 x_189_3
 -1.0 x_190_0 + 4.0 x_190_1 + 7.0 x_190_2 + 10.0 x_190_3
 -1.0 x_191_0 + 4.0 x_191_1 + 7.0 x_191_2 + 10.0 x_191_3
 -1.0 x_192_0 + 4.0 x_192_1 + 7.0 x_192_2 + 10.0 x_192_3
 -1.0 x_193_0 + 4.0 x_193_1 + 7.0 x_193_2 + 10.0 x_193_3
 -1.0 x_194_0 + 4.0 x_194_1 + 7.0 x_194_2 + 10.0 x_194_3
 -1.0 x_195_0 + 4.0 x_195_1 + 7.0 x_195_2 + 10.0 x_195_3
 -1.0 x_196_0 + 4.0 x_196_1 + 7.0 x_196_2 + 10.0 x_196_3
 -1.0 x_197_0 + 4.0 x_197_1 + 7.0 x_197_2 + 10.0 x_197_3
 -1.0 x_198_0 + 4.0 x_198_1 + 7.0 x_198_2 + 10.0 x_198_3
 -1.0 x_199_0 + 4.0 x_199_1 + 7.0 x_199_2 + 10.0 x_199_3
 -1.0 x_200_0 + 4.0 x_200_1 + 7.0 x_200_2 + 10.0 x_200_3
 -1.0 x_201_0 + 4.0 x_201_1 + 7.0 x_201_2 + 10.0 x_201_3
 -1.0 x_202_0 + 4.0 x_202_1 + 7.0 x_202_2 + 10.0 x_202_3
 -1.0 x_203_0 + 4.0 x_203_1 + 7.0 x_203_2 + 10.0 x_203_3
 -1.0 x_204_0 + 4.0 x_204_1 + 7.0 x_204_2 + 10.0 x_204_3
 -1.0 x_205_0 + 4.0 x_205_1 + 7.0 x_205_2 + 10.0 x_205_3
 -1.0 x_206_0 + 4.0 x_206_1 + 7.0 x_206_2 + 10.0 x_206_3
 -1.0 x_207_0 + 4.0 x_207_1 + 7.0 x_207_2 + 10.0 x_207_3
 -1.0 x_208_0 + 4.0 x_208_1 + 7.0 x_208_2 + 10.0 x_208_3
 -1.0 x_209_0 + 4.0 x_209_1 + 7.0 x_209_2 + 10.0 x_209_3
 -1.0 x_210_0 + 4.0 x_210_1 + 7.0 x_210_2 + 10.0 x_210_3
 -1.0 x_211_0 + 4.0 x_211_1 + 7.0 x_211_2 + 10.0 x_211_3
 -1.0 x_212_0 + 4.0 x_212_1 + 7.0 x_212_2 + 10.0 x_212_3
 -1.0 x_213_0 + 4.0 x_213_1 + 7.0 x_213_2 + 10.0 x_213_3
 -1.0 x_214_0 + 4.0 x_214_1 + 7.0 x_214_2 + 10.0 x_214_3
 -1.0 x_215_0 + 4.0 x_215_1 + 7.0 x_215_2 + 10.0 x_215_3
 -1.0 x_216_0 + 4.0 x_216_1 + 7.0 x_216_2 + 10.0 x_216_3
 -1.0 x_217_0 + 4.0 x_217_1 + 7.0 x_217_2 + 10.0 x_217_3
 -1.0 x_218_0 + 4.0 x_218_1 + 7.0 x_218_2 + 10.0 x_218_3
 -1.0 x_219_0 + 4.0 x_219_1 + 7.0 x_219_2 + 10.0 x_219_3
 -1.0 x_220_0 + 4.0 x_220_1 + 7.0 x_220_2 + 10.0 x_220_3
 -1.0 x_221_0 + 4.0 x_221_1 + 7.0 x_221_2 + 10.0 x_221_3
 -1.0 x_222_0 + 4.0 x_222_1 + 7.0 x_222_2 + 10.0 x_222_3
 -1.0 x_223_0 + 4.0 x_223_1 + 7.0 x_223_2 + 10.0 x_223_3
 -1.0 x_224_0 + 4.0 x_224_1 + 7.0 x_224_2 + 10.0 x_224_3
 -1.0 x_225_0 + 4.0 x_225_1 + 7.0 x_225_2 + 10.0 x_225_3
 -1.0 x_226_0 + 4.0 x_226_1 + 7.0 x_226_2 + 10.0 x_226_3
 -1.0 x_227_0 + 4.0 x_227_1 + 7.0 x_227_2 + 10.0 x_227_3
 -1.0 x_228_0 + 4.0 x_228_1 + 7.0 x_228_2 + 10.0 x_228_3
 -1.0 x_229_0 + 4.0 x_229_1 + 7.0 x_229_2 + 10.0 x_229_3
 -1.0 x_230_0 + 4.0 x_230_1 + 7.0 x_230_2 + 10.0 x_230_3
 -1.0 x_231_0 + 4.0 x_231_1 + 7.0 x_231_2 + 10.0 x_231_3
 -1.0 x_232_0 + 4.0 x_232_1 + 7.0 x_232_2 + 10.0 x_232_3
 -1.0 x_233_0 + 4.0 x_233_1 + 7.0 x_233_2 + 10.0 x_233_3
 -1.0 x_234_0 + 4.0 x_234_1 + 7.0 x_234_2 + 10.0 x_234_3
 -1.0 x_235_0 + 4.0 x_235_1 + 7.0 x_235_2 + 10.0 x_235_3
 -1.0 x_236_0 + 4.0 x_236_1 + 7.0 x_236_2 + 10.0 x_236_3
 -1.0 x_237_0 + 4.0 x_237_1 + 7.0 x_237_2 + 10.0 x_237_3
 -1.0 x_238_0 + 4.0 x_238_1 + 7.0 x_238_2 + 10.0 x_238_3
 -1.0 x_239_0 + 4.0 x_239_1 + 7.0 x_239_2 + 10.0 x_239_3
 -1.0 x_240_0 + 4.0 x_240_1 + 7.0 x_240_2 + 10.0 x_240_3
 -1.0 x_241_0 + 4.0 x_241_1 + 7.0 x_241_2 + 10.0 x_241_3
 -1.0 x_242_0 + 4.0 x_242_1 + 7.0 x_242_2 + 10.0 x_242_3
 -1.0 x_243_0 + 4.0 x_243_1 + 7.0 x_243_2 + 10.0 x_243_3
 -1.0 x_244_0 + 4.0 x_244_1 + 7.0 x_244_2 + 10.0 x_244_3
 -1.0 x_245_0 + 4.0 x_245_1 + 7.0 x_245_2 + 10.0 x_245_3
 -1.0 x_246_0 + 4.0 x_246_1 + 7.0 x_246_2 + 10.0 x_246_3
 -1.0 x_247_0 + 4.0 x_247_1 + 7.0 x_247_2 + 10.0 x_247_3
 -1.0 x_248_0 + 4.0 x_248_1 + 7.0 x_248_2 + 10.0 x_248_3
 -1.0 x_249_0 + 4.0 x_249_1 + 7.0 x_249_2 + 10.0 x_249_3
 -1.0 x_250_0 + 4.0 x_250_1 + 7.0 x_250_2 + 10.0 x_250_3
 -1.0 x_251_0 + 4.0 x_251_1 + 7.0 x_251_2 + 10.0 x_251_3
 -1.0 x_252_0 + 4.0 x_252_1 + 7.0 x_252_2 + 10.0 x_252_3
 -1.0 x_253_0 + 4.0 x_253_1 + 7.0 x_253_2 + 10.0 x_253_3
 -1.0 x_254_0 + 4.0 x_254_1 + 7.0 x_254_2 + 10.0 x_254_3
 -1.0 x_255_0 + 4.0 x_255_1 + 7.0 x_255_2 + 10.0 x_255_3
 -1.0 x_256_0 + 4.0 x_256_1 + 7.0 x_256_2 + 10.0 x_256_3
 -1.0 x_257_0 + 4.0 x_257_1 + 7.0 x_257_2 + 10.0 x_257_3
 -1.0 x_258_0 + 4.0 x_258_1 + 7.0 x_258_2 + 10.0 x_258_3
 -1.0 x_259_0 + 4.0 x_259_1 + 7.0 x_259_2 + 10.0 x_259_3
 -1.0 x_260_0 + 4.0 x_260_1 + 7.0 x_260_2 + 10.0 x_260_3
 -1.0 x_261_0 + 4.0 x_261_1 + 7.0 x_261_2 + 10.0 x_261_3
 -1.0 x_262_0 + 4.0 x_262_1 + 7.0 x_262_2 + 10.0 x_262_3
 -1.0 x_263_0 + 4.0 x_263_1 + 7.0 x_263_2 + 10.0 x_263_3
 -1.0 x_264_0 + 4.0 x_264_1 + 7.0 x_264_2 + 10.0 x_264_3
 -1.0 x_265_0 + 4.0 x_265_1 + 7.0 x_265_2 + 10.0 x_265_3
 -1.0 x_266_0 + 4.0 x_266_1 + 7.0 x_266_2 + 10.0 x_266_3
 -1.0 x_267_0 + 4.0 x_267_1 + 7.0 x_267_2 + 10.0 x_267_3
 -1.0 x_268_0 + 4.0 x_268_1 + 7.0 x_268_2 + 10.0 x_268_3
 -1.0 x_269_0 + 4.0 x_269_1 + 7.0 x_269_2 + 10.0 x_269_3
 -1.0 x_270_0 + 4.0 x_270_1 + 7.0 x_270_2 + 10.0 x_270_3
 -1.0 x_271_0 + 4.0 x_271_1 + 7.0 x_271_2 + 10.0 x_271_3
 -1.0 x_272_0 + 4.0 x_272_1 + 7.0 x_272_2 + 10.0 x_272_3
 -1.0 x_273_0 + 4.0 x_273_1 + 7.0 x_273_2 + 10.0 x_273_3
 -1.0 x_274_0 + 4.0 x_274_1 + 7.0 x_274_2 + 10.0 x_274_3
 -1.0 x_275_0 + 4.0 x_275_1 + 7.0 x_275_2 + 10.0 x_275_3
 -1.0 x_276_0 + 4.0 x_276_1 + 7.0 x_276_2 + 10.0 x_276_3
 -1.0 x_277_0 + 4.0 x_277_1 + 7.0 x_277_2 + 10.0 x_277_3
 -1.0 x_278_0 + 4.0 x_278_1 + 7.0 x_278_2 + 10.0 x_278_3
 -1.0 x_279_0 + 4.0 x_279_1 + 7.0 x_279_2 + 10.0 x_279_3
 -1.0 x_280_0 + 4.0 x_280_1 + 7.0 x_280_2 + 10.0 x_280_3
 -1.0 x_281_0 + 4.0 x_281_1 + 7.0 x_281_2 + 10.0 x_281_3
 -1.0 x_282_0 + 4.0 x_282_1 + 7.0 x_282_2 + 10.0 x_282_3
 -1.0 x_283_0 + 4.0 x_283_1 + 7.0 x_283_2 + 10.0 x_283_3
 -1.0 x_284_0 + 4.0 x_284_1 + 7.0 x_284_2 + 10.0 x_284_3
 -1.0 x_285_0 + 4.0 x_285_1 + 7.0 x_285_2 + 10.0 x_285_3
 -1.0 x_286_0 + 4.0 x_286_1 + 7.0 x_286_2 + 10.0 x_286_3
 -1.0 x_287_0 + 4.0 x_287_1 + 7.0 x_287_2 + 10.0 x_287_3
 -1.0 x_288_0 + 4.0 x_288_1 + 7.0 x_288_2 + 10.0 x_288_3
 -1.0 x_289_0 + 4.0 x_289_1 + 7.0 x_289_2 + 10.0 x_289_3
 -1.0 x_290_0 + 4.0 x_290_1 + 7.0 x_290_2 + 10.0 x_290_3
 -1.0 x_291_0 + 4.0 x_291_1 + 7.0 x_291_2 + 10.0 x_291_3
 -1.0 x_292_0 + 4.0 x_292_1 + 7.0 x_292_2 + 10.0 x_292_3
 -1.0 x_293_0 + 4.0 x_293_1 + 7.0 x_293_2 + 10.0 x_293_3
 -1.0 x_294_0 + 4.0 x_294_1 + 7.0 x_294_2 + 10.0 x_294_3
 -1.0 x_295_0 + 4.0 x_295_1 + 7.0 x_295_2 + 10.0 x_295_3
 -1.0 x_296_0 + 4.0 x_296_1 + 7.0 x_296_2 + 10.0 x_296_3
 -1.0 x_297_0 + 4.0 x_297_1 + 7.0 x_297_2 + 10.0 x_297_3
 -1.0 x_298_0 + 4.0 x_298_1 + 7.0 x_298_2 + 10.0 x_298_3
 -1.0 x_299_0 + 4.0 x_299_1 + 7.0 x_299_2 + 10.0 x_299_3
 -1.0 x_300_0 + 4.0 x_300_1 + 7.0 x_300_2 + 10.0 x_300_3
 -1.0 x_301_0 + 4.0 x_301_1 + 7.0 x_301_2 + 10.0 x_301_3
 -1.0 x_302_0 + 4.0 x_302_1 + 7.0 x_302_2 + 10.0 x_302_3
 - FireHazardReduction = 0
BINARY


END
